nBusiness = 78;
nMeetings = 302;
nTables = 22;
nTotalSlots = 22;
nMorningSlots = 12;

requested = [|1, 38, 3,
|1, 50, 3,
|1, 54, 3,
|1, 78, 3,
|4, 1, 3,
|4, 2, 3,
|4, 5, 3,
|9, 1, 2,
|9, 3, 2,
|9, 4, 2,
|14, 2, 2,
|17, 26, 1,
|17, 29, 1,
|17, 36, 1,
|17, 37, 1,
|17, 45, 1,
|17, 46, 1,
|17, 55, 1,
|17, 56, 1,
|17, 58, 1,
|19, 48, 3,
|19, 61, 3,
|19, 64, 3,
|22, 25, 3,
|22, 52, 3,
|22, 54, 3,
|22, 60, 3,
|23, 30, 3,
|23, 61, 3,
|23, 62, 3,
|23, 64, 3,
|24, 2, 3,
|24, 5, 3,
|24, 6, 3,
|24, 20, 3,
|24, 21, 3,
|24, 26, 3,
|24, 45, 3,
|24, 54, 3,
|24, 60, 3,
|24, 61, 3,
|24, 62, 3,
|24, 64, 3,
|25, 3, 3,
|25, 4, 3,
|25, 24, 3,
|25, 41, 3,
|25, 44, 3,
|25, 48, 3,
|25, 52, 3,
|25, 56, 3,
|28, 3, 1,
|28, 6, 1,
|28, 12, 1,
|28, 19, 1,
|28, 23, 1,
|28, 62, 1,
|30, 64, 1,
|33, 26, 3,
|33, 29, 3,
|33, 31, 3,
|33, 46, 3,
|33, 60, 3,
|34, 2, 3,
|34, 23, 3,
|34, 24, 3,
|34, 43, 3,
|35, 5, 3,
|35, 17, 3,
|35, 23, 3,
|35, 28, 3,
|35, 42, 3,
|35, 61, 3,
|35, 62, 3,
|35, 64, 3,
|36, 19, 3,
|36, 20, 3,
|36, 21, 3,
|36, 22, 3,
|36, 24, 3,
|36, 27, 3,
|36, 28, 3,
|36, 33, 3,
|36, 34, 3,
|36, 35, 3,
|36, 38, 3,
|36, 39, 3,
|38, 25, 3,
|38, 27, 3,
|38, 39, 3,
|38, 42, 3,
|38, 53, 3,
|38, 54, 3,
|38, 57, 3,
|40, 2, 1,
|40, 22, 1,
|42, 25, 3,
|42, 31, 3,
|42, 33, 3,
|42, 54, 3,
|42, 57, 3,
|43, 1, 3,
|43, 4, 3,
|43, 17, 3,
|43, 30, 3,
|43, 50, 3,
|43, 59, 3,
|43, 60, 3,
|44, 1, 3,
|44, 4, 3,
|44, 28, 3,
|44, 34, 3,
|44, 37, 3,
|44, 62, 3,
|45, 11, 3,
|46, 6, 1,
|46, 26, 1,
|46, 28, 1,
|46, 29, 1,
|46, 32, 1,
|46, 36, 1,
|46, 41, 1,
|46, 57, 1,
|47, 20, 1,
|47, 22, 1,
|47, 27, 1,
|47, 38, 1,
|47, 39, 1,
|47, 49, 1,
|47, 52, 1,
|47, 62, 1,
|48, 4, 3,
|48, 17, 3,
|48, 23, 3,
|48, 34, 3,
|48, 38, 3,
|48, 44, 3,
|48, 46, 3,
|48, 55, 3,
|48, 61, 3,
|48, 62, 3,
|49, 1, 3,
|49, 75, 3,
|50, 28, 3,
|50, 47, 3,
|50, 49, 3,
|50, 51, 3,
|50, 57, 3,
|50, 60, 3,
|51, 27, 1,
|55, 23, 3,
|55, 29, 3,
|55, 32, 3,
|55, 33, 3,
|55, 44, 3,
|55, 46, 3,
|55, 52, 3,
|56, 6, 3,
|56, 11, 3,
|56, 38, 3,
|56, 46, 3,
|57, 1, 3,
|57, 2, 3,
|57, 4, 3,
|57, 5, 3,
|57, 6, 3,
|57, 21, 3,
|57, 22, 3,
|57, 24, 3,
|57, 25, 3,
|57, 37, 3,
|57, 54, 3,
|57, 61, 3,
|57, 62, 3,
|60, 26, 3,
|60, 27, 3,
|60, 29, 3,
|60, 37, 3,
|60, 40, 3,
|60, 41, 3,
|60, 47, 3,
|60, 52, 3,
|60, 55, 3,
|60, 58, 3,
|60, 59, 3,
|63, 3, 3,
|63, 5, 3,
|63, 6, 3,
|63, 49, 3,
|63, 57, 3,
|63, 60, 3,
|63, 61, 3,
|63, 62, 3,
|63, 64, 3,
|65, 1, 3,
|65, 8, 3,
|65, 14, 3,
|65, 19, 3,
|66, 3, 3,
|66, 4, 3,
|66, 8, 3,
|66, 10, 3,
|66, 60, 3,
|66, 61, 3,
|66, 62, 3,
|66, 64, 3,
|67, 1, 3,
|67, 2, 3,
|67, 7, 3,
|67, 13, 3,
|67, 24, 3,
|67, 30, 3,
|67, 48, 3,
|67, 49, 3,
|67, 50, 3,
|67, 54, 3,
|67, 59, 3,
|68, 24, 3,
|68, 25, 3,
|68, 26, 3,
|68, 28, 3,
|68, 29, 3,
|68, 31, 3,
|68, 32, 3,
|68, 33, 3,
|68, 34, 3,
|68, 35, 3,
|68, 36, 3,
|68, 37, 3,
|68, 38, 3,
|68, 39, 3,
|68, 40, 3,
|68, 41, 3,
|68, 42, 3,
|68, 43, 3,
|68, 44, 3,
|68, 45, 3,
|68, 46, 3,
|68, 47, 3,
|69, 1, 3,
|70, 5, 3,
|70, 6, 3,
|70, 17, 3,
|71, 6, 3,
|71, 17, 3,
|71, 29, 3,
|71, 32, 3,
|71, 38, 3,
|71, 54, 3,
|71, 55, 3,
|71, 61, 3,
|71, 64, 3,
|72, 8, 3,
|72, 14, 3,
|72, 19, 3,
|72, 26, 3,
|72, 62, 3,
|72, 65, 3,
|73, 25, 1,
|73, 26, 1,
|73, 32, 1,
|73, 34, 1,
|73, 41, 1,
|73, 45, 1,
|73, 46, 1,
|73, 48, 1,
|73, 52, 1,
|73, 54, 1,
|73, 55, 1,
|73, 57, 1,
|74, 29, 3,
|74, 36, 3,
|74, 61, 3,
|74, 62, 3,
|74, 64, 3,
|75, 25, 1,
|75, 28, 1,
|75, 29, 1,
|75, 41, 1,
|75, 46, 1,
|75, 54, 1,
|75, 65, 1,
|75, 69, 1,
|76, 29, 3,
|76, 33, 3,
|76, 36, 3,
|76, 64, 3,
|77, 2, 3,
|77, 31, 3,
|77, 53, 3,
|78, 3, 1,
|78, 8, 1,
|78, 12, 1,
|78, 14, 1,
|78, 16, 1,
|78, 19, 1,
|78, 22, 1,
|78, 25, 1,
|78, 39, 1,
|78, 52, 1,
|78, 57, 1,
|78, 59, 1,
|];

nMeetingsBusiness = [13, 8, 6, 10, 6, 8, 1, 4, 3, 1, 2, 2, 1, 4, 0, 1, 14, 0, 8, 3, 3, 9, 9, 18, 16, 8, 5, 13, 10, 4, 4, 5, 10, 9, 10, 17, 5, 14, 5, 4, 6, 8, 9, 10, 5, 16, 11, 14, 6, 9, 2, 7, 2, 10, 12, 6, 20, 2, 4, 18, 10, 12, 9, 10, 6, 8, 11, 22, 2, 3, 9, 6, 12, 5, 9, 4, 3, 13, ];

fixat = [0,0,0,0,0,0,0,0,0,0,0,0,0,0,0,0,0,0,0,0,0,0,0,0,0,0,0,0,0,0,0,0,0,0,0,0,0,0,0,0,0,0,0,0,0,0,0,0,0,0,0,0,0,0,0,0,0,0,0,0,0,0,0,0,0,0,0,0,0,0,0,0,0,0,0,0,0,0,0,0,0,0,0,0,0,0,0,0,0,0,0,0,0,0,0,0,0,0,0,0,0,0,0,0,0,0,0,0,0,0,0,0,0,0,0,0,0,0,0,0,0,0,0,0,0,0,0,0,0,0,0,0,0,0,0,0,0,0,0,0,0,0,0,0,0,0,0,0,0,0,0,0,0,0,0,0,0,0,0,0,0,0,0,0,0,0,0,0,0,0,0,0,0,0,0,0,0,0,0,0,0,0,0,0,0,0,0,0,0,0,0,0,0,0,0,0,0,0,0,0,0,0,0,0,0,0,0,0,0,0,0,0,0,0,0,0,0,0,0,0,0,0,0,0,0,0,0,0,0,0,0,0,0,0,0,0,0,0,0,0,0,0,0,0,0,0,0,0,0,0,0,0,0,0,0,0,0,0,0,0,0,0,0,0,0,0,0,0,0,0,0,0,0,0,0,0,0,0,0,0,0,0,0,0,0,0,0,0,0,0,0,0,0,0,0,0,0,0,0,0,0,0,];

forbidden = [{0,},
{0,},
{0,},
{0,},
{0,},
{0,},
{0,},
{0,},
{0,},
{0,},
{0,},
{0,},
{0,},
{0,},
{0,},
{0,},
{0,},
{0,},
{0,},
{0,},
{0,},
{0,},
{0,},
{0,},
{0,},
{0,},
{0,},
{0,},
{0,},
{0,},
{0,},
{0,},
{0,},
{0,},
{0,},
{0,},
{0,},
{0,},
{0,},
{0,},
{0,},
{0,},
{0,},
{0,},
{0,},
{0,},
{0,},
{0,},
{0,},
{0,},
{0,},
{0,},
{0,},
{0,},
{0,},
{0,},
{0,},
{0,},
{0,},
{0,},
{0,},
{0,},
{0,},
{0,},
{0,},
{0,},
{0,},
{0,},
{0,},
{0,},
{0,},
{0,},
{0,},
{0,},
{0,},
{0,},
{0,},
{0,},
];